
Gurobi 9.5.1 (linux64) logging started Tue 16 Aug 2022 09:29:38 PM MST

Set parameter LogFile to value "/home/local/ASUAD/kmajd1/NNRepLayer_v2/demos/walking_example/dynamic_constraint/repair_net/logs/opt_log_multi_33.log"
Gurobi Optimizer version 9.5.1 build v9.5.1rc2 (linux64)
Thread count: 48 physical cores, 96 logical processors, using up to 48 threads
Optimize a model with 15477 rows, 9832 columns and 134165 nonzeros
Model fingerprint: 0xa7849d2a
Model has 135 quadratic objective terms
Variable types: 5512 continuous, 4320 integer (4320 binary)
Coefficient statistics:
  Matrix range     [1e-03, 6e+01]
  Objective range  [2e-02, 3e+00]
  QObjective range [1e-01, 1e-01]
  Bounds range     [1e-03, 2e+02]
  RHS range        [8e-06, 6e+01]

Concurrent MIP optimizer: 3 concurrent instances (16 threads per instance)

Presolve removed 334 rows and 32 columns
Presolve time: 0.23s
Presolved: 15143 rows, 9800 columns, 133767 nonzeros
Presolved model has 135 quadratic objective terms
Variable types: 5480 continuous, 4320 integer (4320 binary)
Root relaxation presolve removed 4320 rows and 4320 columns
Root relaxation presolved: 10823 rows, 5480 columns, 120807 nonzeros
Root relaxation presolved model has 135 quadratic objective terms


Root relaxation: objective 1.997790e+01, 6539 iterations, 0.43 seconds (0.78 work units)

    Nodes    |    Current Node    |     Objective Bounds      |     Work
 Expl Unexpl |  Obj  Depth IntInf | Incumbent    BestBd   Gap | It/Node Time

     0     0      -    -    -              -   19.97790      -     -    0s
     0     0      -    -    -              -   19.97790      -     -    3s
     0     2      -    -    -              -   19.97790      -     -    9s
     1     4      -    -    -              -   19.97790      -     -   10s
  1386  1462      -    -    -              -   19.97790      -     -   15s
  3400  3554      -    -    -              -   19.97790      -     -   20s
  5631  5872      -    -    -              -   19.97790      -     -   25s
  8155  8388      -    -    -              -   19.97790      -     -   30s
 10266 10266      -    -    -              -   19.97790      -     -   39s

Instance 2 was solved

Explored 10269 nodes (458950 simplex iterations) in 60.90 seconds (71.46 work units)
Thread count was 16 (of 96 available processors)

Solution count 7: 29.9462 31.8441 32.2322 ... 55.2249 

Optimal solution found (tolerance 3.50e-01)
Best objective 2.994624200940e+01, best bound 1.997789542363e+01, gap 33.2875%
